
Log started (V11.0.0) Sun May 18 07:11:55 2008

Tried aggregator 1 time.
Reduced MIP has 530 rows, 15001 columns, and 30030 nonzeros.
Presolve time =    0.13 sec.
Clique table members: 500.
MIP emphasis: balance optimality and feasibility.
MIP search method: dynamic search.
Parallel mode: none, using 1 thread.
Root relaxation solution time =    1.02 sec.

        Nodes                                         Cuts/
   Node  Left     Objective  IInf  Best Integer     Best Node    ItCnt     Gap

*     0+    0                        20840.0000      520.8244      869   97.50%
*     0+    0                          563.0000      520.8244      869    7.49%
      0     0      521.1040    58      563.0000      Fract: 6      935    7.44%
*     0+    0                          558.0000      521.1040      935    6.61%
      0     0      523.0173    74      558.0000       Cuts: 9     1293    6.27%
      0     0      523.3780    79      558.0000       Cuts: 4     1430    6.20%
      0     0      523.5520    74      558.0000     Covers: 1     1649    6.17%
*     0+    0                          555.0000      523.5520     1649    5.67%
      0     0      523.5521    82      555.0000       Cuts: 2     1730    5.67%
      0     0      523.8730    73      555.0000       Cuts: 3     1842    5.61%
*     0+    0                          554.0000      523.8730     1842    5.44%
      0     0      523.8730    74      554.0000     Covers: 1     1849    5.44%
*     0+    0                          553.0000      523.8730     1849    5.27%
*     0+    0                          552.0000      523.8730     1849    5.10%
*     0+    0                          551.0000      523.8730     1849    4.92%
*     0+    0                          550.0000      523.8730     1849    4.75%
*     0+    0                          545.0000      523.8730     1849    3.88%
      0     2      523.8730    74      545.0000      523.8730     1849    3.88%
*    20+   19                          542.0000      523.8771     2108    3.34%
*    40+   39                          541.0000      523.8771     2494    3.17%
    100    83      525.0000    43      541.0000      523.8771    11870    3.17%
*   140+  121                          540.0000      523.8771    12544    2.99%
*   170+  151                          539.0000      523.8771    14162    2.81%
    200   183      525.0000    44      539.0000      523.8771    16616    2.81%
    300   266      525.0000    51      539.0000      523.8771    30832    2.81%
*   360+  308                          538.0000      523.8771    40349    2.63%
    400   343      525.0000    47      538.0000      523.8771    46097    2.63%
    500   406      525.0000    47      538.0000      523.8771    65410    2.63%
*   503+  270                          537.0000      532.1042    69150    0.91%
    600   297      534.0000    30      537.0000      533.0000    70557    0.74%
    700   252      536.0000    23      537.0000      533.0000    73270    0.74%
    800   183    infeasible            537.0000      533.0000    77103    0.74%
    900   133      536.0000    36      537.0000      533.0000    80938    0.74%
*   903+   85                          536.0000      533.0000    81092    0.56%
   1000   146      535.0000    10      536.0000      533.0000    83866    0.56%
Elapsed time = 114.19 sec. (tree size =  1.56 MB, solutions = 17)
*  1003+   65                          535.0000      533.0000    83955    0.37%
   1100   149      534.0000    57      535.0000      533.0000    86268    0.37%
*  1103+  102                          534.0000      533.0000    86310    0.19%
   1200     4      533.0000    50      534.0000      533.0000    94537    0.19%

Cover cuts applied:  52
Mixed integer rounding cuts applied:  2

Solution pool: 19 solutions saved.

MIP - Integer optimal solution:  Objective = 5.3400000000e+002
Solution time =  130.48 sec.  Iterations = 94869  Nodes = 1205


Incumbent solution
Variable Name           Solution Value
Cmax                        534.000000
X_1_22                        1.000000
X_2_19                        1.000000
X_3_14                        1.000000
X_4_25                        1.000000
X_5_18                        1.000000
X_6_13                        1.000000
X_7_27                        1.000000
X_8_15                        1.000000
X_9_15                        1.000000
X_10_13                       1.000000
X_11_13                       1.000000
X_12_2                        1.000000
X_13_25                       1.000000
X_14_21                       1.000000
X_15_20                       1.000000
X_16_26                       1.000000
X_17_4                        1.000000
X_18_14                       1.000000
X_19_14                       1.000000
X_20_29                       1.000000
X_21_15                       1.000000
X_22_3                        1.000000
X_23_22                       1.000000
X_24_4                        1.000000
X_25_11                       1.000000
X_26_13                       1.000000
X_27_25                       1.000000
X_28_14                       1.000000
X_29_15                       1.000000
X_30_28                       1.000000
X_31_13                       1.000000
X_32_14                       1.000000
X_33_13                       1.000000
X_34_1                        1.000000
X_35_19                       1.000000
X_36_30                       1.000000
X_37_27                       1.000000
X_38_16                       1.000000
X_39_10                       1.000000
X_40_14                       1.000000
X_41_29                       1.000000
X_42_23                       1.000000
X_43_13                       1.000000
X_44_14                       1.000000
X_45_14                       1.000000
X_46_14                       1.000000
X_47_26                       1.000000
X_48_9                        1.000000
X_49_23                       1.000000
X_50_1                        1.000000
X_51_7                        1.000000
X_52_21                       1.000000
X_53_15                       1.000000
X_54_20                       1.000000
X_55_10                       1.000000
X_56_13                       1.000000
X_57_20                       1.000000
X_58_10                       1.000000
X_59_8                        1.000000
X_60_14                       1.000000
X_61_14                       1.000000
X_62_14                       1.000000
X_63_1                        1.000000
X_64_27                       1.000000
X_65_20                       1.000000
X_66_15                       1.000000
X_67_13                       1.000000
X_68_7                        1.000000
X_69_7                        1.000000
X_70_20                       1.000000
X_71_25                       1.000000
X_72_1                        1.000000
X_73_23                       1.000000
X_74_14                       1.000000
X_75_14                       1.000000
X_76_25                       1.000000
X_77_20                       1.000000
X_78_10                       1.000000
X_79_21                       1.000000
X_80_4                        1.000000
X_81_14                       1.000000
X_82_21                       1.000000
X_83_15                       1.000000
X_84_14                       1.000000
X_85_21                       1.000000
X_86_24                       1.000000
X_87_12                       1.000000
X_88_3                        1.000000
X_89_23                       1.000000
X_90_23                       1.000000
X_91_25                       1.000000
X_92_4                        1.000000
X_93_23                       1.000000
X_94_14                       1.000000
X_95_13                       1.000000
X_96_27                       1.000000
X_97_14                       1.000000
X_98_30                       1.000000
X_99_15                       1.000000
X_100_10                      1.000000
X_101_13                      1.000000
X_102_2                       1.000000
X_103_25                      1.000000
X_104_28                      1.000000
X_105_4                       1.000000
X_106_25                      1.000000
X_107_3                       1.000000
X_108_29                      1.000000
X_109_26                      1.000000
X_110_28                      1.000000
X_111_20                      1.000000
X_112_28                      1.000000
X_113_3                       1.000000
X_114_11                      1.000000
X_115_27                      1.000000
X_116_14                      1.000000
X_117_15                      1.000000
X_118_24                      1.000000
X_119_13                      1.000000
X_120_21                      1.000000
X_121_3                       1.000000
X_122_14                      1.000000
X_123_9                       1.000000
X_124_17                      1.000000
X_125_28                      1.000000
X_126_13                      1.000000
X_127_14                      1.000000
X_128_27                      1.000000
X_129_14                      1.000000
X_130_15                      1.000000
X_131_2                       1.000000
X_132_19                      1.000000
X_133_7                       1.000000
X_134_14                      1.000000
X_135_9                       1.000000
X_136_14                      1.000000
X_137_23                      1.000000
X_138_18                      1.000000
X_139_30                      1.000000
X_140_15                      1.000000
X_141_3                       1.000000
X_142_10                      1.000000
X_143_14                      1.000000
X_144_16                      1.000000
X_145_20                      1.000000
X_146_30                      1.000000
X_147_7                       1.000000
X_148_26                      1.000000
X_149_15                      1.000000
X_150_23                      1.000000
X_151_8                       1.000000
X_152_14                      1.000000
X_153_14                      1.000000
X_154_13                      1.000000
X_155_30                      1.000000
X_156_1                       1.000000
X_157_28                      1.000000
X_158_16                      1.000000
X_159_14                      1.000000
X_160_13                      1.000000
X_161_25                      1.000000
X_162_13                      1.000000
X_163_27                      1.000000
X_164_2                       1.000000
X_165_26                      1.000000
X_166_14                      1.000000
X_167_17                      1.000000
X_168_9                       1.000000
X_169_20                      1.000000
X_170_7                       1.000000
X_171_15                      1.000000
X_172_6                       1.000000
X_173_7                       1.000000
X_174_14                      1.000000
X_175_9                       1.000000
X_176_14                      1.000000
X_177_14                      1.000000
X_178_28                      1.000000
X_179_30                      1.000000
X_180_17                      1.000000
X_181_17                      1.000000
X_182_14                      1.000000
X_183_20                      1.000000
X_184_25                      1.000000
X_185_8                       1.000000
X_186_3                       1.000000
X_187_14                      1.000000
X_188_1                       1.000000
X_189_1                       1.000000
X_190_20                      1.000000
X_191_14                      1.000000
X_192_21                      1.000000
X_193_14                      1.000000
X_194_24                      1.000000
X_195_23                      1.000000
X_196_13                      1.000000
X_197_7                       1.000000
X_198_9                       1.000000
X_199_14                      1.000000
X_200_7                       1.000000
X_201_14                      1.000000
X_202_12                      1.000000
X_203_23                      1.000000
X_204_12                      1.000000
X_205_14                      1.000000
X_206_27                      1.000000
X_207_15                      1.000000
X_208_25                      1.000000
X_209_14                      1.000000
X_210_13                      1.000000
X_211_5                       1.000000
X_212_5                       1.000000
X_213_29                      1.000000
X_214_14                      1.000000
X_215_25                      1.000000
X_216_6                       1.000000
X_217_10                      1.000000
X_218_13                      1.000000
X_219_2                       1.000000
X_220_3                       1.000000
X_221_4                       1.000000
X_222_10                      1.000000
X_223_19                      1.000000
X_224_14                      1.000000
X_225_29                      1.000000
X_226_27                      1.000000
X_227_7                       1.000000
X_228_9                       1.000000
X_229_14                      1.000000
X_230_14                      1.000000
X_231_13                      1.000000
X_232_30                      1.000000
X_233_14                      1.000000
X_234_22                      1.000000
X_235_10                      1.000000
X_236_3                       1.000000
X_237_14                      1.000000
X_238_22                      1.000000
X_239_6                       1.000000
X_240_29                      1.000000
X_241_13                      1.000000
X_242_12                      1.000000
X_243_5                       1.000000
X_244_16                      1.000000
X_245_15                      1.000000
X_246_21                      1.000000
X_247_17                      1.000000
X_248_25                      1.000000
X_249_8                       1.000000
X_250_21                      1.000000
X_251_14                      1.000000
X_252_18                      1.000000
X_253_25                      1.000000
X_254_15                      1.000000
X_255_14                      1.000000
X_256_14                      1.000000
X_257_21                      1.000000
X_258_27                      1.000000
X_259_21                      1.000000
X_260_13                      1.000000
X_261_20                      1.000000
X_262_13                      1.000000
X_263_7                       1.000000
X_264_11                      1.000000
X_265_26                      1.000000
X_266_30                      1.000000
X_267_26                      1.000000
X_268_30                      1.000000
X_269_25                      1.000000
X_270_8                       1.000000
X_271_1                       1.000000
X_272_21                      1.000000
X_273_14                      1.000000
X_274_9                       1.000000
X_275_28                      1.000000
X_276_25                      1.000000
X_277_22                      1.000000
X_278_3                       1.000000
X_279_8                       1.000000
X_280_15                      1.000000
X_281_20                      1.000000
X_282_13                      1.000000
X_283_14                      1.000000
X_284_29                      1.000000
X_285_10                      1.000000
X_286_9                       1.000000
X_287_2                       1.000000
X_288_1                       1.000000
X_289_17                      1.000000
X_290_3                       1.000000
X_291_8                       1.000000
X_292_29                      1.000000
X_293_14                      1.000000
X_294_14                      1.000000
X_295_28                      1.000000
X_296_15                      1.000000
X_297_29                      1.000000
X_298_30                      1.000000
X_299_23                      1.000000
X_300_21                      1.000000
X_301_10                      1.000000
X_302_23                      1.000000
X_303_25                      1.000000
X_304_14                      1.000000
X_305_14                      1.000000
X_306_29                      1.000000
X_307_14                      1.000000
X_308_15                      1.000000
X_309_14                      1.000000
X_310_29                      1.000000
X_311_14                      1.000000
X_312_28                      1.000000
X_313_15                      1.000000
X_314_2                       1.000000
X_315_2                       1.000000
X_316_5                       1.000000
X_317_14                      1.000000
X_318_21                      1.000000
X_319_11                      1.000000
X_320_14                      1.000000
X_321_23                      1.000000
X_322_11                      1.000000
X_323_15                      1.000000
X_324_14                      1.000000
X_325_27                      1.000000
X_326_8                       1.000000
X_327_15                      1.000000
X_328_26                      1.000000
X_329_14                      1.000000
X_330_16                      1.000000
X_331_10                      1.000000
X_332_14                      1.000000
X_333_3                       1.000000
X_334_27                      1.000000
X_335_14                      1.000000
X_336_14                      1.000000
X_337_2                       1.000000
X_338_24                      1.000000
X_339_25                      1.000000
X_340_28                      1.000000
X_341_25                      1.000000
X_342_21                      1.000000
X_343_23                      1.000000
X_344_28                      1.000000
X_345_14                      1.000000
X_346_7                       1.000000
X_347_30                      1.000000
X_348_25                      1.000000
X_349_29                      1.000000
X_350_4                       1.000000
X_351_6                       1.000000
X_352_21                      1.000000
X_353_2                       1.000000
X_354_3                       1.000000
X_355_12                      1.000000
X_356_14                      1.000000
X_357_15                      1.000000
X_358_14                      1.000000
X_359_10                      1.000000
X_360_5                       1.000000
X_361_14                      1.000000
X_362_13                      1.000000
X_363_13                      1.000000
X_364_15                      1.000000
X_365_13                      1.000000
X_366_13                      1.000000
X_367_6                       1.000000
X_368_13                      1.000000
X_369_7                       1.000000
X_370_14                      1.000000
X_371_15                      1.000000
X_372_7                       1.000000
X_373_28                      1.000000
X_374_13                      1.000000
X_375_13                      1.000000
X_376_30                      1.000000
X_377_3                       1.000000
X_378_17                      1.000000
X_379_21                      1.000000
X_380_23                      1.000000
X_381_13                      1.000000
X_382_14                      1.000000
X_383_13                      1.000000
X_384_24                      1.000000
X_385_22                      1.000000
X_386_1                       1.000000
X_387_6                       1.000000
X_388_6                       1.000000
X_389_19                      1.000000
X_390_22                      1.000000
X_391_18                      1.000000
X_392_1                       1.000000
X_393_14                      1.000000
X_394_23                      1.000000
X_395_30                      1.000000
X_396_14                      1.000000
X_397_15                      1.000000
X_398_23                      1.000000
X_399_26                      1.000000
X_400_14                      1.000000
X_401_13                      1.000000
X_402_1                       1.000000
X_403_2                       1.000000
X_404_15                      1.000000
X_405_14                      1.000000
X_406_14                      1.000000
X_407_3                       1.000000
X_408_23                      1.000000
X_409_9                       1.000000
X_410_13                      1.000000
X_411_9                       1.000000
X_412_9                       1.000000
X_413_15                      1.000000
X_414_11                      1.000000
X_415_24                      1.000000
X_416_13                      1.000000
X_417_14                      1.000000
X_418_10                      1.000000
X_419_27                      1.000000
X_420_30                      1.000000
X_421_16                      1.000000
X_422_16                      1.000000
X_423_14                      1.000000
X_424_20                      1.000000
X_425_14                      1.000000
X_426_29                      1.000000
X_427_25                      1.000000
X_428_16                      1.000000
X_429_15                      1.000000
X_430_14                      1.000000
X_431_30                      1.000000
X_432_1                       1.000000
X_433_15                      1.000000
X_434_4                       1.000000
X_435_30                      1.000000
X_436_21                      1.000000
X_437_14                      1.000000
X_438_23                      1.000000
X_439_14                      1.000000
X_440_15                      1.000000
X_441_28                      1.000000
X_442_25                      1.000000
X_443_23                      1.000000
X_444_23                      1.000000
X_445_14                      1.000000
X_446_13                      1.000000
X_447_20                      1.000000
X_448_14                      1.000000
X_449_21                      1.000000
X_450_16                      1.000000
X_451_15                      1.000000
X_452_15                      1.000000
X_453_1                       1.000000
X_454_10                      1.000000
X_455_14                      1.000000
X_456_23                      1.000000
X_457_1                       1.000000
X_458_9                       1.000000
X_459_29                      1.000000
X_460_25                      1.000000
X_461_14                      1.000000
X_462_14                      1.000000
X_463_13                      1.000000
X_464_13                      1.000000
X_465_14                      1.000000
X_466_15                      1.000000
X_467_14                      1.000000
X_468_21                      1.000000
X_469_15                      1.000000
X_470_23                      1.000000
X_471_26                      1.000000
X_472_13                      1.000000
X_473_13                      1.000000
X_474_25                      1.000000
X_475_5                       1.000000
X_476_20                      1.000000
X_477_18                      1.000000
X_478_25                      1.000000
X_479_28                      1.000000
X_480_25                      1.000000
X_481_7                       1.000000
X_482_23                      1.000000
X_483_14                      1.000000
X_484_13                      1.000000
X_485_14                      1.000000
X_486_4                       1.000000
X_487_23                      1.000000
X_488_14                      1.000000
X_489_14                      1.000000
X_490_2                       1.000000
X_491_17                      1.000000
X_492_5                       1.000000
X_493_22                      1.000000
X_494_28                      1.000000
X_495_7                       1.000000
X_496_29                      1.000000
X_497_25                      1.000000
X_498_14                      1.000000
X_499_15                      1.000000
X_500_8                       1.000000
All other variables in the range 1-15001 are 0.
